100 100 22766
4 22 22 1 6 100 46 10 70 57 10 100 2 36 51
90 21 80 88 40 9 14 96 27 18 84 1 41 63 24
838 521 4735 181 706 2538 1349 1685 5336 1775 1131 129 179 6668 3551
920 451 5758 195 712 2710 1417 1615 5561 1671 1331 137 188 6956 4221
